NAME : instances/20-120-tsp/instance-28.tsp
COMMENT : No Comment
TYPE : TSP
DIMENSION: 28
EDGE_WEIGHT_TYPE : EUC_2D
NODE_COORD_SECTION
1 3753 2767 
2 6441 2787 
3 5407 7693 
4 9420 2737 
5 1238 4934 
6 4890 5069 
7 9263 8665 
8 317 1289 
9 780 5210 
10 5587 6065 
11 1282 4631 
12 4239 3595 
13 9476 9729 
14 2662 2866 
15 5779 8684 
16 1249 7815 
17 1816 2860 
18 9337 3125 
19 8112 4301 
20 6163 2002 
21 2888 6005 
22 5692 2646 
23 2742 5554 
24 7020 6347 
25 9732 3032 
26 8357 5185 
27 4485 7420 
28 5436 9337 
EOF
